0 0 0 0
0 1 0 0
0 2 1 0
0 3 0 0
0 4 0 5
0 5 0 9
0 6 0 5
0 7 1 9
0 8 0 16
0 9 0 9
0 10 0 7
0 11 0 10
0 12 0 10
0 13 1 13
0 14 0 10
0 15 1 11
0 16 0 20
0 17 1 5
0 18 0 17
0 19 0 13
0 20 0 21
0 21 0 20
0 22 0 24
0 23 0 24
0 24 0 19
0 25 0 13
0 26 0 26
0 27 1 21
0 28 0 27
0 29 0 28
0 30 2 27
0 31 0 29
